presolving:
(round 1, fast)       226 del vars, 0 del conss, 0 add conss, 0 chg bounds, 0 chg sides, 0 chg coeffs, 0 upgd conss, 0 impls, 450 clqs
(round 2, exhaustive) 226 del vars, 0 del conss, 0 add conss, 0 chg bounds, 0 chg sides, 0 chg coeffs, 450 upgd conss, 0 impls, 450 clqs
   (2.0s) probing: 51/50400 (0.1%) - 0 fixings, 0 aggregations, 0 implications, 0 bound changes
   (2.0s) probing aborted: 50/50 successive totally useless probings
   Deactivated symmetry handling methods, since SCIP was built without symmetry detector (SYM=none).
presolving (3 rounds: 3 fast, 2 medium, 2 exhaustive):
 226 deleted vars, 0 deleted constraints, 0 added constraints, 0 tightened bounds, 0 added holes, 0 changed sides, 0 changed coefficients
 0 implications, 450 cliques
presolved problem has 50624 variables (50400 bin, 0 int, 0 impl, 224 cont) and 50402 constraints
    450 constraints of type <setppc>
  49952 constraints of type <linear>
Presolving Time: 3.00

 time | node  | left  |LP iter|LP it/n|mem/heur|mdpt |vars |cons |rows |cuts |sepa|confs|strbr|  dualbound   | primalbound  |  gap   | compl. 
p 5.0s|     1 |     0 |   314 |     - | vbounds|   0 |  50k|  50k|  50k|   0 |  0 |   5 |   0 | 0.000000e+00 | 2.775324e+05 |    Inf | unknown
  5.0s|     1 |     0 |   977 |     - |   433M |   0 |  50k|  50k|  50k|   0 |  0 |   5 |   0 | 1.156066e+05 | 2.775324e+05 | 140.07%| unknown
  7.0s|     1 |     0 |  1198 |     - |   442M |   0 |  50k|  50k|  50k| 162 |  1 |   5 |   0 | 1.156066e+05 | 2.775324e+05 | 140.07%| unknown
  8.0s|     1 |     0 |  1278 |     - |   448M |   0 |  50k|  50k|  50k| 217 |  2 |   5 |   0 | 1.156066e+05 | 2.775324e+05 | 140.07%| unknown
  9.0s|     1 |     0 |  1282 |     - |   454M |   0 |  50k|  50k|  50k| 220 |  3 |   5 |   0 | 1.156066e+05 | 2.775324e+05 | 140.07%| unknown
 10.0s|     1 |     0 |  1339 |     - |   460M |   0 |  50k|  50k|  50k| 263 |  4 |   5 |   0 | 1.156066e+05 | 2.775324e+05 | 140.07%| unknown
 11.0s|     1 |     0 |  1403 |     - |   467M |   0 |  50k|  50k|  50k| 301 |  5 |   5 |   0 | 1.156066e+05 | 2.775324e+05 | 140.07%| unknown
 13.0s|     1 |     0 |  1456 |     - |   472M |   0 |  50k|  50k|  50k| 337 |  6 |   5 |   0 | 1.156066e+05 | 2.775324e+05 | 140.07%| unknown
 15.0s|     1 |     0 |  1498 |     - |   477M |   0 |  50k|  50k|  50k| 352 |  7 |   5 |   0 | 1.156066e+05 | 2.775324e+05 | 140.07%| unknown
 16.0s|     1 |     0 |  1524 |     - |   484M |   0 |  50k|  50k|  50k| 367 |  8 |   5 |   0 | 1.156066e+05 | 2.775324e+05 | 140.07%| unknown
 18.0s|     1 |     0 |  1585 |     - |   490M |   0 |  50k|  50k|  50k| 418 |  9 |   5 |   0 | 1.156066e+05 | 2.775324e+05 | 140.07%| unknown
 19.0s|     1 |     0 |  1663 |     - |   495M |   0 |  50k|  50k|  50k| 458 | 10 |   5 |   0 | 1.156066e+05 | 2.775324e+05 | 140.07%| unknown
 21.0s|     1 |     0 |  1726 |     - |   500M |   0 |  50k|  50k|  50k| 497 | 11 |   5 |   0 | 1.156066e+05 | 2.775324e+05 | 140.07%| unknown
  194s|     1 |     2 |  9287 |     - |   507M |   0 |  50k|  50k|  50k| 497 | 11 |   5 |  26 | 1.156066e+05 | 2.775324e+05 | 140.07%| unknown

SCIP Status        : solving was interrupted [time limit reached]
Solving Time (sec) : 601.00
Solving Nodes      : 11
Primal Bound       : +2.77532411928402e+05 (1 solutions)
Dual Bound         : +1.15606601717798e+05
Gap                : 140.07 %
Trying to solve problem with MTZ Solver Method...
Starting Solver, time limit setted to 10 minutes
Route:  [[0, 2], [1, 3], [2, 1], [3, 4], [4, 5], [5, 6], [6, 7], [7, 8], [8, 9], [9, 10], [10, 11], [11, 12], [12, 13], [13, 14], [14, 15], [15, 16], [16, 17], [17, 18], [18, 19], [19, 20], [20, 21], [21, 22], [22, 23], [23, 24], [24, 25], [25, 26], [26, 27], [27, 28], [28, 29], [29, 30], [30, 31], [31, 32], [32, 33], [33, 34], [34, 35], [35, 36], [36, 37], [37, 38], [38, 39], [39, 40], [40, 41], [41, 42], [42, 43], [43, 44], [44, 45], [45, 46], [46, 47], [47, 48], [48, 49], [49, 50], [50, 51], [51, 52], [52, 53], [53, 54], [54, 55], [55, 56], [56, 57], [57, 58], [58, 59], [59, 60], [60, 61], [61, 62], [62, 63], [63, 64], [64, 65], [65, 66], [66, 67], [67, 68], [68, 69], [69, 70], [70, 71], [71, 72], [72, 73], [73, 74], [74, 75], [75, 76], [76, 77], [77, 78], [78, 79], [79, 80], [80, 81], [81, 82], [82, 83], [83, 84], [84, 85], [85, 86], [86, 87], [87, 88], [88, 89], [89, 90], [90, 91], [91, 92], [92, 93], [93, 94], [94, 95], [95, 96], [96, 97], [97, 98], [98, 99], [99, 100], [100, 101], [101, 102], [102, 103], [103, 104], [104, 105], [105, 106], [106, 107], [107, 108], [108, 109], [109, 110], [110, 111], [111, 112], [112, 113], [113, 114], [114, 115], [115, 116], [116, 117], [117, 118], [118, 119], [119, 120], [120, 121], [121, 122], [122, 123], [123, 124], [124, 125], [125, 126], [126, 127], [127, 128], [128, 129], [129, 130], [130, 131], [131, 132], [132, 133], [133, 134], [134, 135], [135, 136], [136, 137], [137, 138], [138, 139], [139, 140], [140, 141], [141, 142], [142, 143], [143, 144], [144, 145], [145, 146], [146, 147], [147, 148], [148, 149], [149, 150], [150, 151], [151, 152], [152, 153], [153, 154], [154, 155], [155, 156], [156, 157], [157, 158], [158, 159], [159, 160], [160, 161], [161, 162], [162, 163], [163, 164], [164, 165], [165, 166], [166, 167], [167, 168], [168, 169], [169, 170], [170, 171], [171, 172], [172, 173], [173, 174], [174, 175], [175, 176], [176, 177], [177, 178], [178, 179], [179, 180], [180, 181], [181, 182], [182, 183], [183, 184], [184, 185], [185, 186], [186, 187], [187, 188], [188, 189], [189, 190], [190, 191], [191, 192], [192, 193], [193, 194], [194, 195], [195, 196], [196, 197], [197, 198], [198, 199], [199, 200], [200, 201], [201, 202], [202, 203], [203, 204], [204, 205], [205, 206], [206, 207], [207, 208], [208, 209], [209, 210], [210, 211], [211, 212], [212, 213], [213, 214], [214, 215], [215, 216], [216, 217], [217, 218], [218, 219], [219, 220], [220, 221], [221, 222], [222, 223], [223, 224], [224, 0]]
An Otimal Solution was found, yay!
Objective value: 277532.4
Problem solved in 10027 iterations
Problem solved in 11 nodes
Final Route Configuration succesfully created at:
data/routes/ts225.csv
